outputs/case_472.model.txt
forex_amount_twd = 500000
declaration_submitted = True
declaration_accurate = True
explanation_provided = True
forex_not_sold = False
declaration_made = True
forex_not_deposited = False
penalty = False
violation_declaration = False
explanation_truthful = True
declaration_required = True
violation_forex_handling = False
violation_explanation = False